p cnf 430 1488
-191 42 0
-191 168 0
-191 -52 0
-191 -75 0
-191 174 0
191 -42 -168 52 75 -174 0
-192 -111 0
-192 -79 0
-192 47 0
-192 85 0
-192 138 0
192 111 79 -47 -85 -138 0
-193 183 0
-193 62 0
-193 -166 0
-193 -159 0
-193 121 0
193 -183 -62 166 159 -121 0
-194 171 0
-194 -78 0
-194 11 0
-194 102 0
-194 95 0
194 -171 78 -11 -102 -95 0
-195 -51 0
-195 -2 0
-195 -54 0
-195 -158 0
-195 28 0
195 51 2 54 158 -28 0
191 192 193 194 195 0
-196 7 0
-196 -157 0
-196 -99 0
-196 -5 0
-196 68 0
196 -7 157 99 5 -68 0
-197 105 0
-197 132 0
-197 -64 0
-197 -83 0
-197 17 0
197 -105 -132 64 83 -17 0
-198 -42 0
-198 -124 0
-198 -147 0
-198 65 0
-198 31 0
198 42 124 147 -65 -31 0
-199 134 0
-199 -38 0
-199 -58 0
-199 -122 0
-199 -100 0
199 -134 38 58 122 100 0
-200 -12 0
-200 -4 0
-200 157 0
-200 50 0
-200 -29 0
200 12 4 -157 -50 29 0
196 197 198 199 200 0
-201 -17 0
-201 110 0
-201 93 0
-201 -61 0
-201 -52 0
201 17 -110 -93 61 52 0
-202 -44 0
-202 19 0
-202 34 0
-202 134 0
-202 53 0
202 44 -19 -34 -134 -53 0
-203 16 0
-203 155 0
-203 53 0
-203 91 0
-203 186 0
203 -16 -155 -53 -91 -186 0
-204 -169 0
-204 30 0
-204 -33 0
-204 138 0
-204 -37 0
204 169 -30 33 -138 37 0
-205 36 0
-205 30 0
-205 -93 0
-205 -150 0
-205 176 0
205 -36 -30 93 150 -176 0
201 202 203 204 205 0
-206 -25 0
-206 -175 0
-206 -126 0
-206 118 0
-206 -117 0
206 25 175 126 -118 117 0
-207 -120 0
-207 -188 0
-207 123 0
-207 -154 0
-207 -148 0
207 120 188 -123 154 148 0
-208 -23 0
-208 70 0
-208 106 0
-208 90 0
-208 155 0
208 23 -70 -106 -90 -155 0
-209 -10 0
-209 -144 0
-209 21 0
-209 127 0
-209 59 0
209 10 144 -21 -127 -59 0
-210 -136 0
-210 -70 0
-210 4 0
-210 98 0
-210 83 0
210 136 70 -4 -98 -83 0
206 207 208 209 210 0
-211 -49 0
-211 30 0
-211 3 0
-211 83 0
-211 92 0
211 49 -30 -3 -83 -92 0
-212 26 0
-212 -153 0
-212 42 0
-212 187 0
-212 50 0
212 -26 153 -42 -187 -50 0
-213 125 0
-213 -21 0
-213 44 0
-213 -79 0
-213 57 0
213 -125 21 -44 79 -57 0
-214 -11 0
-214 120 0
-214 -68 0
-214 -123 0
-214 -118 0
214 11 -120 68 123 118 0
-215 97 0
-215 -81 0
-215 -26 0
-215 -162 0
-215 172 0
215 -97 81 26 162 -172 0
211 212 213 214 215 0
-216 -49 0
-216 86 0
-216 -143 0
-216 20 0
-216 190 0
216 49 -86 143 -20 -190 0
-217 71 0
-217 29 0
-217 159 0
-217 -64 0
-217 -59 0
217 -71 -29 -159 64 59 0
-218 180 0
-218 -7 0
-218 176 0
-218 138 0
-218 145 0
218 -180 7 -176 -138 -145 0
-219 -131 0
-219 129 0
-219 130 0
-219 -57 0
-219 123 0
219 131 -129 -130 57 -123 0
-220 137 0
-220 -26 0
-220 -27 0
-220 20 0
-220 -72 0
220 -137 26 27 -20 72 0
216 217 218 219 220 0
-221 81 0
-221 124 0
-221 -72 0
-221 -98 0
-221 112 0
221 -81 -124 72 98 -112 0
-222 96 0
-222 131 0
-222 -100 0
-222 -43 0
-222 64 0
222 -96 -131 100 43 -64 0
-223 -2 0
-223 -110 0
-223 -79 0
-223 -137 0
-223 164 0
223 2 110 79 137 -164 0
-224 -27 0
-224 131 0
-224 -177 0
-224 94 0
-224 91 0
224 27 -131 177 -94 -91 0
-225 152 0
-225 110 0
-225 -123 0
-225 108 0
-225 138 0
225 -152 -110 123 -108 -138 0
221 222 223 224 225 0
-226 -53 0
-226 11 0
-226 13 0
-226 71 0
-226 82 0
226 53 -11 -13 -71 -82 0
-227 -160 0
-227 -77 0
-227 -150 0
-227 8 0
-227 -80 0
227 160 77 150 -8 80 0
-228 121 0
-228 132 0
-228 -113 0
-228 72 0
-228 139 0
228 -121 -132 113 -72 -139 0
-229 123 0
-229 -83 0
-229 -22 0
-229 15 0
-229 -30 0
229 -123 83 22 -15 30 0
-230 -148 0
-230 80 0
-230 121 0
-230 -161 0
-230 77 0
230 148 -80 -121 161 -77 0
226 227 228 229 230 0
-231 91 0
-231 -80 0
-231 -184 0
-231 140 0
-231 -32 0
231 -91 80 184 -140 32 0
-232 -134 0
-232 78 0
-232 137 0
-232 -131 0
-232 68 0
232 134 -78 -137 131 -68 0
-233 -89 0
-233 163 0
-233 -25 0
-233 7 0
-233 -101 0
233 89 -163 25 -7 101 0
-234 132 0
-234 126 0
-234 183 0
-234 80 0
-234 181 0
234 -132 -126 -183 -80 -181 0
-235 -22 0
-235 -138 0
-235 175 0
-235 -77 0
-235 -176 0
235 22 138 -175 77 176 0
231 232 233 234 235 0
-236 -31 0
-236 -66 0
-236 -158 0
-236 -124 0
-236 -24 0
236 31 66 158 124 24 0
-237 -99 0
-237 88 0
-237 74 0
-237 161 0
-237 37 0
237 99 -88 -74 -161 -37 0
-238 -74 0
-238 47 0
-238 -46 0
-238 -70 0
-238 -169 0
238 74 -47 46 70 169 0
-239 -52 0
-239 -81 0
-239 -37 0
-239 -64 0
-239 -2 0
239 52 81 37 64 2 0
-240 100 0
-240 -27 0
-240 47 0
-240 -45 0
-240 158 0
240 -100 27 -47 45 -158 0
236 237 238 239 240 0
-241 -64 0
-241 -9 0
-241 167 0
-241 -120 0
-241 -42 0
241 64 9 -167 120 42 0
-242 -78 0
-242 26 0
-242 -175 0
-242 151 0
-242 15 0
242 78 -26 175 -151 -15 0
-243 -35 0
-243 74 0
-243 76 0
-243 -93 0
-243 -88 0
243 35 -74 -76 93 88 0
-244 169 0
-244 -43 0
-244 90 0
-244 -139 0
-244 -111 0
244 -169 43 -90 139 111 0
-245 -122 0
-245 -2 0
-245 -37 0
-245 100 0
-245 11 0
245 122 2 37 -100 -11 0
241 242 243 244 245 0
-246 -20 0
-246 -184 0
-246 115 0
-246 55 0
-246 58 0
246 20 184 -115 -55 -58 0
-247 -161 0
-247 113 0
-247 -19 0
-247 10 0
-247 -133 0
247 161 -113 19 -10 133 0
-248 -114 0
-248 -71 0
-248 -144 0
-248 97 0
-248 150 0
248 114 71 144 -97 -150 0
-249 32 0
-249 129 0
-249 -163 0
-249 42 0
-249 25 0
249 -32 -129 163 -42 -25 0
-250 15 0
-250 -46 0
-250 -120 0
-250 -47 0
-250 105 0
250 -15 46 120 47 -105 0
246 247 248 249 250 0
-251 -184 0
-251 -11 0
-251 -34 0
-251 -80 0
-251 -27 0
251 184 11 34 80 27 0
-252 -43 0
-252 15 0
-252 -84 0
-252 -131 0
-252 140 0
252 43 -15 84 131 -140 0
-253 -131 0
-253 40 0
-253 107 0
-253 69 0
-253 -154 0
253 131 -40 -107 -69 154 0
-254 -147 0
-254 134 0
-254 47 0
-254 56 0
-254 80 0
254 147 -134 -47 -56 -80 0
-255 -14 0
-255 146 0
-255 -28 0
-255 -190 0
-255 11 0
255 14 -146 28 190 -11 0
251 252 253 254 255 0
-256 -147 0
-256 49 0
-256 149 0
-256 -144 0
-256 -109 0
256 147 -49 -149 144 109 0
-257 38 0
-257 8 0
-257 28 0
-257 -106 0
-257 78 0
257 -38 -8 -28 106 -78 0
-258 177 0
-258 -22 0
-258 -106 0
-258 -121 0
-258 144 0
258 -177 22 106 121 -144 0
-259 -101 0
-259 -125 0
-259 120 0
-259 -156 0
-259 -146 0
259 101 125 -120 156 146 0
-260 146 0
-260 -86 0
-260 -60 0
-260 104 0
-260 37 0
260 -146 86 60 -104 -37 0
256 257 258 259 260 0
-261 -137 0
-261 -98 0
-261 190 0
-261 -173 0
-261 -128 0
261 137 98 -190 173 128 0
-262 30 0
-262 66 0
-262 -130 0
-262 99 0
-262 -103 0
262 -30 -66 130 -99 103 0
-263 -17 0
-263 -30 0
-263 188 0
-263 1 0
-263 -40 0
263 17 30 -188 -1 40 0
-264 -161 0
-264 188 0
-264 107 0
-264 26 0
-264 -90 0
264 161 -188 -107 -26 90 0
-265 -57 0
-265 136 0
-265 -145 0
-265 -167 0
-265 163 0
265 57 -136 145 167 -163 0
261 262 263 264 265 0
-266 108 0
-266 -46 0
-266 -132 0
-266 130 0
-266 11 0
266 -108 46 132 -130 -11 0
-267 -170 0
-267 -110 0
-267 -130 0
-267 -38 0
-267 174 0
267 170 110 130 38 -174 0
-268 162 0
-268 71 0
-268 -166 0
-268 -44 0
-268 14 0
268 -162 -71 166 44 -14 0
-269 90 0
-269 -62 0
-269 150 0
-269 53 0
-269 35 0
269 -90 62 -150 -53 -35 0
-270 128 0
-270 -112 0
-270 121 0
-270 12 0
-270 4 0
270 -128 112 -121 -12 -4 0
266 267 268 269 270 0
-271 -43 0
-271 117 0
-271 -99 0
-271 -45 0
-271 -1 0
271 43 -117 99 45 1 0
-272 38 0
-272 -156 0
-272 -149 0
-272 65 0
-272 -93 0
272 -38 156 149 -65 93 0
-273 59 0
-273 -66 0
-273 166 0
-273 162 0
-273 75 0
273 -59 66 -166 -162 -75 0
-274 155 0
-274 -11 0
-274 169 0
-274 8 0
-274 106 0
274 -155 11 -169 -8 -106 0
-275 -190 0
-275 -108 0
-275 78 0
-275 55 0
-275 119 0
275 190 108 -78 -55 -119 0
271 272 273 274 275 0
-276 -19 0
-276 188 0
-276 -187 0
-276 -124 0
-276 -123 0
276 19 -188 187 124 123 0
-277 36 0
-277 -116 0
-277 51 0
-277 -95 0
-277 148 0
277 -36 116 -51 95 -148 0
-278 137 0
-278 165 0
-278 18 0
-278 160 0
-278 -1 0
278 -137 -165 -18 -160 1 0
-279 -180 0
-279 -88 0
-279 71 0
-279 63 0
-279 -60 0
279 180 88 -71 -63 60 0
-280 -97 0
-280 -177 0
-280 21 0
-280 173 0
-280 160 0
280 97 177 -21 -173 -160 0
276 277 278 279 280 0
-281 -82 0
-281 66 0
-281 -31 0
-281 176 0
-281 -34 0
281 82 -66 31 -176 34 0
-282 -31 0
-282 56 0
-282 -58 0
-282 9 0
-282 -1 0
282 31 -56 58 -9 1 0
-283 162 0
-283 -103 0
-283 -71 0
-283 -16 0
-283 57 0
283 -162 103 71 16 -57 0
-284 120 0
-284 -88 0
-284 172 0
-284 -185 0
-284 -183 0
284 -120 88 -172 185 183 0
-285 26 0
-285 -17 0
-285 -61 0
-285 -159 0
-285 47 0
285 -26 17 61 159 -47 0
281 282 283 284 285 0
-286 -172 0
-286 -29 0
-286 125 0
-286 -137 0
-286 160 0
286 172 29 -125 137 -160 0
-287 178 0
-287 14 0
-287 128 0
-287 -141 0
-287 73 0
287 -178 -14 -128 141 -73 0
-288 -58 0
-288 10 0
-288 -28 0
-288 119 0
-288 137 0
288 58 -10 28 -119 -137 0
-289 54 0
-289 25 0
-289 119 0
-289 113 0
-289 130 0
289 -54 -25 -119 -113 -130 0
-290 14 0
-290 117 0
-290 -10 0
-290 -15 0
-290 -97 0
290 -14 -117 10 15 97 0
286 287 288 289 290 0
-291 91 0
-291 -87 0
-291 -61 0
-291 160 0
-291 -83 0
291 -91 87 61 -160 83 0
-292 -33 0
-292 -19 0
-292 -164 0
-292 -169 0
-292 175 0
292 33 19 164 169 -175 0
-293 152 0
-293 -87 0
-293 119 0
-293 -182 0
-293 11 0
293 -152 87 -119 182 -11 0
-294 -171 0
-294 180 0
-294 147 0
-294 145 0
-294 185 0
294 171 -180 -147 -145 -185 0
-295 -112 0
-295 -105 0
-295 80 0
-295 -4 0
-295 -56 0
295 112 105 -80 4 56 0
291 292 293 294 295 0
-296 -138 0
-296 -126 0
-296 136 0
-296 -179 0
-296 19 0
296 138 126 -136 179 -19 0
-297 187 0
-297 48 0
-297 96 0
-297 -79 0
-297 115 0
297 -187 -48 -96 79 -115 0
-298 145 0
-298 62 0
-298 178 0
-298 -12 0
-298 30 0
298 -145 -62 -178 12 -30 0
-299 150 0
-299 -33 0
-299 100 0
-299 -130 0
-299 66 0
299 -150 33 -100 130 -66 0
-300 -110 0
-300 165 0
-300 93 0
-300 131 0
-300 13 0
300 110 -165 -93 -131 -13 0
296 297 298 299 300 0
-301 34 0
-301 -143 0
-301 -189 0
-301 -108 0
-301 137 0
301 -34 143 189 108 -137 0
-302 -162 0
-302 184 0
-302 -129 0
-302 137 0
-302 36 0
302 162 -184 129 -137 -36 0
-303 139 0
-303 64 0
-303 -107 0
-303 -180 0
-303 160 0
303 -139 -64 107 180 -160 0
-304 100 0
-304 136 0
-304 8 0
-304 120 0
-304 -190 0
304 -100 -136 -8 -120 190 0
-305 -143 0
-305 -69 0
-305 16 0
-305 108 0
-305 -1 0
305 143 69 -16 -108 1 0
301 302 303 304 305 0
-306 -86 0
-306 49 0
-306 -142 0
-306 70 0
-306 158 0
306 86 -49 142 -70 -158 0
-307 -22 0
-307 -110 0
-307 186 0
-307 125 0
-307 147 0
307 22 110 -186 -125 -147 0
-308 124 0
-308 74 0
-308 -190 0
-308 -157 0
-308 120 0
308 -124 -74 190 157 -120 0
-309 60 0
-309 -20 0
-309 118 0
-309 -40 0
-309 -17 0
309 -60 20 -118 40 17 0
-310 -89 0
-310 -130 0
-310 39 0
-310 92 0
-310 -176 0
310 89 130 -39 -92 176 0
306 307 308 309 310 0
-311 132 0
-311 -124 0
-311 157 0
-311 51 0
-311 -31 0
311 -132 124 -157 -51 31 0
-312 72 0
-312 -112 0
-312 -47 0
-312 -74 0
-312 -5 0
312 -72 112 47 74 5 0
-313 -127 0
-313 157 0
-313 48 0
-313 70 0
-313 -30 0
313 127 -157 -48 -70 30 0
-314 30 0
-314 -6 0
-314 99 0
-314 32 0
-314 142 0
314 -30 6 -99 -32 -142 0
-315 -6 0
-315 43 0
-315 -71 0
-315 -32 0
-315 182 0
315 6 -43 71 32 -182 0
311 312 313 314 315 0
-316 -96 0
-316 47 0
-316 5 0
-316 -80 0
-316 18 0
316 96 -47 -5 80 -18 0
-317 -161 0
-317 -67 0
-317 107 0
-317 -185 0
-317 138 0
317 161 67 -107 185 -138 0
-318 -85 0
-318 10 0
-318 -39 0
-318 -19 0
-318 -146 0
318 85 -10 39 19 146 0
-319 166 0
-319 54 0
-319 104 0
-319 -67 0
-319 -116 0
319 -166 -54 -104 67 116 0
-320 -175 0
-320 -126 0
-320 65 0
-320 -130 0
-320 -103 0
320 175 126 -65 130 103 0
316 317 318 319 320 0
-321 6 0
-321 160 0
-321 115 0
-321 20 0
-321 -157 0
321 -6 -160 -115 -20 157 0
-322 -131 0
-322 74 0
-322 -149 0
-322 63 0
-322 72 0
322 131 -74 149 -63 -72 0
-323 107 0
-323 -147 0
-323 -65 0
-323 62 0
-323 -180 0
323 -107 147 65 -62 180 0
-324 115 0
-324 -179 0
-324 -86 0
-324 98 0
-324 41 0
324 -115 179 86 -98 -41 0
-325 26 0
-325 130 0
-325 64 0
-325 -105 0
-325 -124 0
325 -26 -130 -64 105 124 0
321 322 323 324 325 0
-326 23 0
-326 120 0
-326 -58 0
-326 39 0
-326 11 0
326 -23 -120 58 -39 -11 0
-327 -87 0
-327 -165 0
-327 -144 0
-327 -8 0
-327 -81 0
327 87 165 144 8 81 0
-328 189 0
-328 115 0
-328 59 0
-328 -28 0
-328 -79 0
328 -189 -115 -59 28 79 0
-329 -31 0
-329 -185 0
-329 100 0
-329 -55 0
-329 -65 0
329 31 185 -100 55 65 0
-330 -174 0
-330 176 0
-330 -78 0
-330 153 0
-330 -42 0
330 174 -176 78 -153 42 0
326 327 328 329 330 0
-331 10 0
-331 145 0
-331 50 0
-331 36 0
-331 130 0
331 -10 -145 -50 -36 -130 0
-332 -152 0
-332 118 0
-332 98 0
-332 190 0
-332 151 0
332 152 -118 -98 -190 -151 0
-333 122 0
-333 174 0
-333 -5 0
-333 152 0
-333 21 0
333 -122 -174 5 -152 -21 0
-334 -77 0
-334 63 0
-334 -95 0
-334 -187 0
-334 6 0
334 77 -63 95 187 -6 0
-335 153 0
-335 -5 0
-335 174 0
-335 -77 0
-335 -115 0
335 -153 5 -174 77 115 0
331 332 333 334 335 0
-336 -67 0
-336 -25 0
-336 -50 0
-336 -184 0
-336 124 0
336 67 25 50 184 -124 0
-337 -64 0
-337 179 0
-337 -169 0
-337 -6 0
-337 190 0
337 64 -179 169 6 -190 0
-338 154 0
-338 64 0
-338 -25 0
-338 66 0
-338 -160 0
338 -154 -64 25 -66 160 0
-339 75 0
-339 -14 0
-339 -150 0
-339 6 0
-339 158 0
339 -75 14 150 -6 -158 0
-340 150 0
-340 -131 0
-340 -51 0
-340 47 0
-340 152 0
340 -150 131 51 -47 -152 0
336 337 338 339 340 0
-341 -136 0
-341 80 0
-341 180 0
-341 -103 0
-341 -48 0
341 136 -80 -180 103 48 0
-342 -50 0
-342 -149 0
-342 -175 0
-342 -159 0
-342 156 0
342 50 149 175 159 -156 0
-343 -126 0
-343 -131 0
-343 -86 0
-343 -130 0
-343 84 0
343 126 131 86 130 -84 0
-344 40 0
-344 -120 0
-344 -146 0
-344 27 0
-344 -181 0
344 -40 120 146 -27 181 0
-345 124 0
-345 -15 0
-345 52 0
-345 38 0
-345 -136 0
345 -124 15 -52 -38 136 0
341 342 343 344 345 0
-346 30 0
-346 36 0
-346 -171 0
-346 159 0
-346 -94 0
346 -30 -36 171 -159 94 0
-347 104 0
-347 25 0
-347 126 0
-347 -154 0
-347 -71 0
347 -104 -25 -126 154 71 0
-348 -12 0
-348 27 0
-348 -136 0
-348 -48 0
-348 63 0
348 12 -27 136 48 -63 0
-349 -18 0
-349 -32 0
-349 39 0
-349 -64 0
-349 121 0
349 18 32 -39 64 -121 0
-350 -36 0
-350 -5 0
-350 90 0
-350 -170 0
-350 -12 0
350 36 5 -90 170 12 0
346 347 348 349 350 0
-351 12 0
-351 -10 0
-351 -153 0
-351 -89 0
-351 -45 0
351 -12 10 153 89 45 0
-352 -59 0
-352 -8 0
-352 -138 0
-352 -44 0
-352 19 0
352 59 8 138 44 -19 0
-353 25 0
-353 -147 0
-353 83 0
-353 63 0
-353 -161 0
353 -25 147 -83 -63 161 0
-354 -176 0
-354 -140 0
-354 -168 0
-354 73 0
-354 80 0
354 176 140 168 -73 -80 0
-355 -124 0
-355 -164 0
-355 14 0
-355 -38 0
-355 135 0
355 124 164 -14 38 -135 0
351 352 353 354 355 0
-356 -189 0
-356 -43 0
-356 153 0
-356 -5 0
-356 -50 0
356 189 43 -153 5 50 0
-357 121 0
-357 40 0
-357 63 0
-357 -61 0
-357 105 0
357 -121 -40 -63 61 -105 0
-358 -1 0
-358 90 0
-358 83 0
-358 -112 0
-358 48 0
358 1 -90 -83 112 -48 0
-359 -94 0
-359 129 0
-359 -79 0
-359 -56 0
-359 124 0
359 94 -129 79 56 -124 0
-360 132 0
-360 138 0
-360 148 0
-360 -154 0
-360 -71 0
360 -132 -138 -148 154 71 0
356 357 358 359 360 0
-361 57 0
-361 -136 0
-361 -111 0
-361 142 0
-361 -107 0
361 -57 136 111 -142 107 0
-362 132 0
-362 88 0
-362 -116 0
-362 -2 0
-362 -62 0
362 -132 -88 116 2 62 0
-363 33 0
-363 -152 0
-363 173 0
-363 86 0
-363 19 0
363 -33 152 -173 -86 -19 0
-364 -163 0
-364 -108 0
-364 -173 0
-364 -172 0
-364 130 0
364 163 108 173 172 -130 0
-365 -32 0
-365 -1 0
-365 -58 0
-365 75 0
-365 18 0
365 32 1 58 -75 -18 0
361 362 363 364 365 0
-366 -61 0
-366 -100 0
-366 38 0
-366 -95 0
-366 -105 0
366 61 100 -38 95 105 0
-367 -159 0
-367 65 0
-367 -177 0
-367 152 0
-367 26 0
367 159 -65 177 -152 -26 0
-368 -81 0
-368 115 0
-368 136 0
-368 -98 0
-368 23 0
368 81 -115 -136 98 -23 0
-369 -53 0
-369 -143 0
-369 173 0
-369 2 0
-369 -160 0
369 53 143 -173 -2 160 0
-370 -134 0
-370 -161 0
-370 175 0
-370 -176 0
-370 -1 0
370 134 161 -175 176 1 0
366 367 368 369 370 0
-371 -169 0
-371 -136 0
-371 -78 0
-371 29 0
-371 -15 0
371 169 136 78 -29 15 0
-372 8 0
-372 -56 0
-372 -90 0
-372 104 0
-372 -131 0
372 -8 56 90 -104 131 0
-373 138 0
-373 149 0
-373 -111 0
-373 32 0
-373 117 0
373 -138 -149 111 -32 -117 0
-374 -144 0
-374 -7 0
-374 -168 0
-374 183 0
-374 -179 0
374 144 7 168 -183 179 0
-375 140 0
-375 40 0
-375 -128 0
-375 -71 0
-375 -103 0
375 -140 -40 128 71 103 0
371 372 373 374 375 0
-376 -66 0
-376 186 0
-376 9 0
-376 -130 0
-376 169 0
376 66 -186 -9 130 -169 0
-377 133 0
-377 -59 0
-377 35 0
-377 126 0
-377 -79 0
377 -133 59 -35 -126 79 0
-378 54 0
-378 5 0
-378 -182 0
-378 187 0
-378 129 0
378 -54 -5 182 -187 -129 0
-379 104 0
-379 -56 0
-379 -52 0
-379 94 0
-379 -186 0
379 -104 56 52 -94 186 0
-380 153 0
-380 -66 0
-380 67 0
-380 6 0
-380 24 0
380 -153 66 -67 -6 -24 0
376 377 378 379 380 0
-381 101 0
-381 73 0
-381 54 0
-381 110 0
-381 167 0
381 -101 -73 -54 -110 -167 0
-382 153 0
-382 136 0
-382 -19 0
-382 98 0
-382 -54 0
382 -153 -136 19 -98 54 0
-383 129 0
-383 40 0
-383 -188 0
-383 174 0
-383 -81 0
383 -129 -40 188 -174 81 0
-384 -38 0
-384 -30 0
-384 -128 0
-384 147 0
-384 -11 0
384 38 30 128 -147 11 0
-385 -142 0
-385 -184 0
-385 154 0
-385 -74 0
-385 141 0
385 142 184 -154 74 -141 0
381 382 383 384 385 0
-386 -152 0
-386 -137 0
-386 -71 0
-386 150 0
-386 -6 0
386 152 137 71 -150 6 0
-387 -41 0
-387 100 0
-387 -107 0
-387 86 0
-387 -183 0
387 41 -100 107 -86 183 0
-388 -181 0
-388 142 0
-388 -6 0
-388 -111 0
-388 -166 0
388 181 -142 6 111 166 0
-389 -129 0
-389 -141 0
-389 135 0
-389 35 0
-389 -117 0
389 129 141 -135 -35 117 0
-390 23 0
-390 -52 0
-390 187 0
-390 -75 0
-390 -116 0
390 -23 52 -187 75 116 0
386 387 388 389 390 0
-391 107 0
-391 -168 0
-391 -35 0
-391 -60 0
-391 -110 0
391 -107 168 35 60 110 0
-392 -83 0
-392 -66 0
-392 -39 0
-392 -10 0
-392 5 0
392 83 66 39 10 -5 0
-393 -88 0
-393 -158 0
-393 129 0
-393 -169 0
-393 32 0
393 88 158 -129 169 -32 0
-394 -43 0
-394 -128 0
-394 -141 0
-394 181 0
-394 -10 0
394 43 128 141 -181 10 0
-395 -148 0
-395 184 0
-395 -160 0
-395 37 0
-395 47 0
395 148 -184 160 -37 -47 0
391 392 393 394 395 0
-396 -159 0
-396 -13 0
-396 -116 0
-396 137 0
-396 30 0
396 159 13 116 -137 -30 0
-397 94 0
-397 -17 0
-397 -155 0
-397 -124 0
-397 86 0
397 -94 17 155 124 -86 0
-398 -56 0
-398 -150 0
-398 152 0
-398 99 0
-398 -178 0
398 56 150 -152 -99 178 0
-399 -125 0
-399 -159 0
-399 72 0
-399 -23 0
-399 129 0
399 125 159 -72 23 -129 0
-400 80 0
-400 -85 0
-400 -28 0
-400 66 0
-400 -159 0
400 -80 85 28 -66 159 0
396 397 398 399 400 0
-401 -105 0
-401 -133 0
-401 189 0
-401 49 0
-401 159 0
401 105 133 -189 -49 -159 0
-402 -36 0
-402 -139 0
-402 105 0
-402 -35 0
-402 -165 0
402 36 139 -105 35 165 0
-403 126 0
-403 10 0
-403 28 0
-403 -114 0
-403 14 0
403 -126 -10 -28 114 -14 0
-404 -149 0
-404 159 0
-404 172 0
-404 -33 0
-404 51 0
404 149 -159 -172 33 -51 0
-405 -144 0
-405 154 0
-405 -48 0
-405 -17 0
-405 8 0
405 144 -154 48 17 -8 0
401 402 403 404 405 0
-406 55 0
-406 111 0
-406 -131 0
-406 -99 0
-406 89 0
406 -55 -111 131 99 -89 0
-407 153 0
-407 95 0
-407 -58 0
-407 -54 0
-407 -25 0
407 -153 -95 58 54 25 0
-408 1 0
-408 49 0
-408 168 0
-408 53 0
-408 137 0
408 -1 -49 -168 -53 -137 0
-409 -7 0
-409 16 0
-409 139 0
-409 -126 0
-409 159 0
409 7 -16 -139 126 -159 0
-410 -137 0
-410 -84 0
-410 83 0
-410 -76 0
-410 -75 0
410 137 84 -83 76 75 0
406 407 408 409 410 0
-411 -102 0
-411 -88 0
-411 -86 0
-411 -117 0
-411 180 0
411 102 88 86 117 -180 0
-412 63 0
-412 -183 0
-412 -44 0
-412 169 0
-412 -17 0
412 -63 183 44 -169 17 0
-413 70 0
-413 -88 0
-413 80 0
-413 74 0
-413 38 0
413 -70 88 -80 -74 -38 0
-414 -116 0
-414 51 0
-414 -45 0
-414 -160 0
-414 97 0
414 116 -51 45 160 -97 0
-415 164 0
-415 -89 0
-415 10 0
-415 -50 0
-415 -84 0
415 -164 89 -10 50 84 0
411 412 413 414 415 0
-416 39 0
-416 131 0
-416 -27 0
-416 55 0
-416 -167 0
416 -39 -131 27 -55 167 0
-417 88 0
-417 -135 0
-417 -116 0
-417 130 0
-417 -25 0
417 -88 135 116 -130 25 0
-418 22 0
-418 -100 0
-418 12 0
-418 40 0
-418 -33 0
418 -22 100 -12 -40 33 0
-419 39 0
-419 99 0
-419 -37 0
-419 132 0
-419 68 0
419 -39 -99 37 -132 -68 0
-420 122 0
-420 177 0
-420 138 0
-420 90 0
-420 -81 0
420 -122 -177 -138 -90 81 0
416 417 418 419 420 0
-421 169 0
-421 -7 0
-421 -37 0
-421 6 0
-421 126 0
421 -169 7 37 -6 -126 0
-422 4 0
-422 -187 0
-422 108 0
-422 -99 0
-422 58 0
422 -4 187 -108 99 -58 0
-423 -50 0
-423 -172 0
-423 2 0
-423 -111 0
-423 -163 0
423 50 172 -2 111 163 0
-424 80 0
-424 -38 0
-424 189 0
-424 -172 0
-424 115 0
424 -80 38 -189 172 -115 0
-425 107 0
-425 145 0
-425 -3 0
-425 -134 0
-425 -38 0
425 -107 -145 3 134 38 0
421 422 423 424 425 0
-426 16 0
-426 99 0
-426 -3 0
-426 -105 0
-426 -177 0
426 -16 -99 3 105 177 0
-427 24 0
-427 116 0
-427 147 0
-427 110 0
-427 -185 0
427 -24 -116 -147 -110 185 0
-428 151 0
-428 31 0
-428 155 0
-428 -185 0
-428 124 0
428 -151 -31 -155 185 -124 0
-429 -39 0
-429 -59 0
-429 -85 0
-429 116 0
-429 -179 0
429 39 59 85 -116 179 0
-430 -152 0
-430 93 0
-430 55 0
-430 107 0
-430 -87 0
430 152 -93 -55 -107 87 0
426 427 428 429 430 0
